NAME : tsp_195_sol.txt
COMMENT : OR-Tools Guided Local Search
TYPE : TOUR
DIMENSION : 50
COST : 5708
STATUS : ROUTING_SUCCESS
GAP : 0.00% (Reference Solution)
TOUR_SECTION
1
33
47
30
16
9
19
44
10
42
22
37
48
6
17
26
25
50
41
27
18
14
2
35
49
7
3
21
34
23
29
24
20
11
28
39
32
45
5
4
31
38
40
43
8
46
15
36
12
13
-1
